32      4       
14      17      15      13      
0       0       0       0       0       3       2       3       4       
10      12      1       1       1       3       5       6       8       
5       1       1       4       1       2       5       6       
4       8       1       7       1       2       5       8       
8       1       1       10      1       1       7       
7       1       6       1       6       1       7       
4       3       1       1       1       2       9       10      
5       1       4       7       4       2       9       10      
4       1       1       1       3       3       11      13      14      
5       7       12      4       7       3       11      12      14      
4       4       6       1       6       2       15      16      
10      5       1       5       10      2       15      16      
6       3       10      1       1       2       15      16      
3       1       6       1       5       1       15      
7       6       11      5       1       2       17      20      
2       1       1       6       5       2       18      20      
7       7       1       1       1       1       18      
3       1       8       14      2       1       19      
5       3       1       1       1       2       21      22      
6       8       1       1       7       1       21      
3       1       7       5       1       2       23      24      
1       1       6       4       3       1       23      
1       4       1       6       6       2       26      28      
1       1       1       1       1       1       25      
7       5       8       1       3       2       27      28      
6       1       1       5       3       1       27      
2       1       7       4       7       2       29      30      
5       6       10      5       1       2       29      30      
2       7       2       4       6       1       31      
8       1       4       1       1       1       31      
2       3       7       5       2       1       32      
0       0       0       0       0       0       
